Problem:    assignment
Rows:       13
Columns:    27 (27 integer, 27 binary)
Non-zeros:  81
Status:     INTEGER OPTIMAL
Objective:  z = 264 (MINimum)

   No.   Row name        Activity     Lower bound   Upper bound
------ ------------    ------------- ------------- -------------
     1 assegnamento[1]
                                   1             1             = 
     2 assegnamento[2]
                                   1             1             = 
     3 assegnamento[3]
                                   1             1             = 
     4 assegnamento[4]
                                   1             1             = 
     5 assegnamento[5]
                                   1             1             = 
     6 assegnamento[6]
                                   1             1             = 
     7 assegnamento[7]
                                   1             1             = 
     8 assegnamento[8]
                                   1             1             = 
     9 assegnamento[9]
                                   1             1             = 
    10 limitetempi[1]
                                 324                         380 
    11 limitetempi[2]
                                 359                         360 
    12 limitetempi[3]
                                 348                         350 
    13 z                         264                             

   No. Column name       Activity     Lower bound   Upper bound
------ ------------    ------------- ------------- -------------
     1 assegnamenti[1,1]
                    *              0             0             1 
     2 assegnamenti[1,2]
                    *              1             0             1 
     3 assegnamenti[1,3]
                    *              0             0             1 
     4 assegnamenti[2,1]
                    *              1             0             1 
     5 assegnamenti[2,2]
                    *              0             0             1 
     6 assegnamenti[2,3]
                    *              0             0             1 
     7 assegnamenti[3,1]
                    *              0             0             1 
     8 assegnamenti[3,2]
                    *              0             0             1 
     9 assegnamenti[3,3]
                    *              1             0             1 
    10 assegnamenti[4,1]
                    *              0             0             1 
    11 assegnamenti[4,2]
                    *              0             0             1 
    12 assegnamenti[4,3]
                    *              1             0             1 
    13 assegnamenti[5,1]
                    *              0             0             1 
    14 assegnamenti[5,2]
                    *              0             0             1 
    15 assegnamenti[5,3]
                    *              1             0             1 
    16 assegnamenti[6,1]
                    *              0             0             1 
    17 assegnamenti[6,2]
                    *              1             0             1 
    18 assegnamenti[6,3]
                    *              0             0             1 
    19 assegnamenti[7,1]
                    *              0             0             1 
    20 assegnamenti[7,2]
                    *              1             0             1 
    21 assegnamenti[7,3]
                    *              0             0             1 
    22 assegnamenti[8,1]
                    *              1             0             1 
    23 assegnamenti[8,2]
                    *              0             0             1 
    24 assegnamenti[8,3]
                    *              0             0             1 
    25 assegnamenti[9,1]
                    *              1             0             1 
    26 assegnamenti[9,2]
                    *              0             0             1 
    27 assegnamenti[9,3]
                    *              0             0             1 

Integer feasibility conditions:

KKT.PE: max.abs.err = 0.00e+00 on row 0
        max.rel.err = 0.00e+00 on row 0
        High quality

KKT.PB: max.abs.err = 0.00e+00 on row 0
        max.rel.err = 0.00e+00 on row 0
        High quality

End of output
